#######################



#######################
Set parameter TimeLimit to value 500
Set parameter SoftMemLimit to value 125
Set parameter MIPFocus to value 2
Set parameter LogFile to value 1202-MIPFocus2-Presolve2-TimeLimit500-k16x240-7.log
Set parameter Presolve to value 2
Set parameter Seed to value 17
Using license file /opt/gurobi/gurobi.lic

Gurobi Optimizer version 12.0.2 build v12.0.2rc0 (linux64 - "Ubuntu 22.04.4 LTS")
Copyright (c) 2025, Gurobi Optimization, LLC

Read MPS format model from file /miplib2010/k16x240.mps.bz2
Reading time = 0.00 seconds
k16x240: 256 rows, 480 columns, 960 nonzeros

Using Gurobi shared library /nfs/shared/static-builds/gurobi1202

CPU model: Intel(R) Xeon(R) E-2388G CPU @ 3.20GHz, instruction set [SSE2|AVX|AVX2|AVX512]
Thread count: 8 physical cores, 16 logical processors, using up to 16 threads

Non-default parameters:
TimeLimit  500
SoftMemLimit  125
MIPFocus  2
Presolve  2
Seed  17

Optimize a model with 256 rows, 480 columns and 960 nonzeros
Model fingerprint: 0x4e80885f
Variable types: 240 continuous, 240 integer (240 binary)
Coefficient statistics:
  Matrix range     [1e+00, 1e+03]
  Objective range  [1e+00, 1e+03]
  Bounds range     [1e+00, 1e+03]
  RHS range        [4e+00, 4e+02]
Found heuristic solution: objective 21882.000000
Presolve time: 0.00s
Presolved: 256 rows, 480 columns, 960 nonzeros
Variable types: 240 continuous, 240 integer (240 binary)
Root relaxation presolve removed 241 rows and 240 columns
Root relaxation presolved: 15 rows, 240 columns, 450 nonzeros


Root relaxation: objective 2.769838e+03, 16 iterations, 0.00 seconds (0.00 work units)

    Nodes    |    Current Node    |     Objective Bounds      |     Work
 Expl Unexpl |  Obj  Depth IntInf | Incumbent    BestBd   Gap | It/Node Time

     0     0 2769.83800    0   14 21882.0000 2769.83800  87.3%     -    0s
H    0     0                    11359.000000 2769.83800  75.6%     -    0s
H    0     0                    11262.000000 2769.83800  75.4%     -    0s
H    0     0                    11199.000000 2769.83800  75.3%     -    0s
H    0     0                    11140.000000 2769.83800  75.1%     -    0s
     0     0 8116.87580    0   26 11140.0000 8116.87580  27.1%     -    0s
H    0     0                    11129.000000 8190.91086  26.4%     -    0s
H    0     0                    10863.000000 8190.91086  24.6%     -    0s
H    0     0                    10832.000000 8190.91086  24.4%     -    0s
H    0     0                    10779.000000 8190.91086  24.0%     -    0s
     0     0 8586.22232    0   26 10779.0000 8586.22232  20.3%     -    0s
     0     0 8613.30839    0   24 10779.0000 8613.30839  20.1%     -    0s
     0     0 8613.47920    0   24 10779.0000 8613.47920  20.1%     -    0s
     0     0 8721.57599    0   35 10779.0000 8721.57599  19.1%     -    0s
H    0     0                    10765.000000 8721.79743  19.0%     -    0s
H    0     0                    10763.000000 8721.79743  19.0%     -    0s
     0     0 8771.84225    0   27 10763.0000 8771.84225  18.5%     -    0s
     0     0 8798.14333    0   34 10763.0000 8798.14333  18.3%     -    0s
     0     0 8894.12299    0   28 10763.0000 8894.12299  17.4%     -    0s
     0     0 8901.94565    0   26 10763.0000 8901.94565  17.3%     -    0s
     0     0 9032.09741    0   27 10763.0000 9032.09741  16.1%     -    0s
     0     0 9066.92411    0   28 10763.0000 9066.92411  15.8%     -    0s
     0     0 9075.20656    0   30 10763.0000 9075.20656  15.7%     -    0s
     0     0 9105.72313    0   30 10763.0000 9105.72313  15.4%     -    0s
     0     0 9106.42821    0   30 10763.0000 9106.42821  15.4%     -    0s
H    0     0                    10678.000000 9106.42821  14.7%     -    0s
     0     2 9106.42821    0   30 10678.0000 9106.42821  14.7%     -    0s
H  977   761                    10674.000000 9398.06660  12.0%  18.4    0s
 28887 10408 10338.5320   33   21 10674.0000 10061.4936  5.74%  24.0    5s
 69266 15233 10347.2687   32   35 10674.0000 10251.5313  3.96%  25.2   10s
 105466 11158     cutoff   36      10674.0000 10404.1774  2.53%  25.7   15s

Cutting planes:
  Lift-and-project: 20
  Cover: 71
  Implied bound: 17
  Dual implied bound: 19
  MIR: 189
  Mixing: 3
  Flow cover: 320
  Flow path: 50
  Inf proof: 4
  Zero half: 7
  Network: 47
  Relax-and-lift: 3

Explored 130262 nodes (3260272 simplex iterations) in 18.25 seconds (25.53 work units)
Thread count was 16 (of 16 available processors)

Solution count 10: 10674 10678 10763 ... 11199

Optimal solution found (tolerance 1.00e-04)
Best objective 1.067400000000e+04, best bound 1.067400000000e+04, gap 0.0000%
